44 428
1 2 8 9 12 13 16 17 18 19 20 24 25 27 29 30 32 33 37 39 40 41 42
0 3 5 7 8 9 13 19 20 21 26 28 30 32 35 38
0 5 6 7 8 10 12 13 15 16 18 20 24 25 26 27 29 30 31 33 36 37
1 4 6 8 12 15 18 19 21 22 23 25 27 28 31 32 33 34 39 40 41 42
3 8 11 16 17 22 24 27 28 31 32 35 36 39 41
1 2 7 9 12 14 15 17 18 19 22 34 35 39 41 42
2 3 10 11 13 14 15 18 19 20 22 24 27 30 32 34 37 40 43
1 2 5 8 11 12 13 17 18 19 20 21 23 26 27 29 30 31 33 35 37 38 39 40 42
0 1 2 3 4 7 9 11 14 17 18 20 21 23 24 31 32 33 37 39 40 41
0 1 5 8 13 15 25 29 30 37 38 42
2 6 11 13 14 15 16 17 21 23 24 26 27 28 30 33 34 35 36 37 38 39
4 6 7 8 10 13 15 17 18 21 24 25 28 29 30 31 34 36 37 38 39 41
0 2 3 5 7 14 18 20 30 33 34 35 38 42 43
0 1 2 6 7 9 10 11 14 15 22 23 26 27 28 29 30 32 33 34 35 38 41 42 43
5 6 8 10 12 13 16 17 19 21 22 26 27 29 30 32 34 36 39 42 43
2 3 5 6 9 10 11 13 16 19 20 21 22 23 25 27 28 29 31 33 35 36 37 40 42 43
0 2 4 10 14 15 21 22 25 26 27 29 30 32 36 37 40
0 4 5 7 8 10 11 14 22 25 31 32 36 37 41 42 43
0 2 3 5 6 7 8 11 12 19 20 22 23 24 25 26 27 29 30 31 34 35 36 39 40 43
0 1 3 5 6 7 14 15 18 24 26 27 29 33 36 37 39 40 41 42
0 1 2 6 7 8 12 15 18 22 23 29 34 37 43
1 3 7 8 10 11 14 15 16 26 27 28 33 35 39 41 42
3 4 5 6 13 14 15 16 17 18 20 24 30 31 32 35 36 39 42
3 7 8 10 13 15 18 20 29 32 33 34 35 36 37 38 40
0 2 4 6 8 10 11 18 19 22 26 30 31 32 34 36 38 39 40 41 43
0 2 3 9 11 15 16 17 18 26 27 28 29 32 35 41 42 43
1 2 7 10 13 14 16 18 19 21 24 25 28 30 32 36 37 41 43
0 2 3 4 6 7 10 13 14 15 16 18 19 21 25 30 33 40 43
1 3 4 10 11 13 15 21 25 26 31 32 33 35 37 42
0 2 7 9 11 13 14 15 16 18 19 20 23 25 31 35 39 40 42
0 1 2 6 7 9 10 11 12 13 14 16 18 22 24 26 27 31 32 37 39 42 43
2 3 4 7 8 11 15 17 18 22 24 28 29 30 32 33 35 38 39 41 42 43
0 1 3 4 6 8 13 14 16 17 22 23 24 25 26 28 30 31 36 37 40 42 43
0 2 3 7 8 10 12 13 15 19 21 23 27 28 31 40
3 5 6 10 11 12 13 14 18 20 23 24 35 38 40 41
1 4 5 7 10 12 13 15 18 21 22 23 25 28 29 31 34 36 37 39 40 41
2 4 10 11 14 15 16 17 18 19 22 23 24 26 32 35 38
0 2 6 7 8 9 10 11 15 16 17 19 20 23 26 28 30 32 35 39 41
1 7 9 10 11 12 13 23 24 31 34 36 39 43
0 3 4 5 7 8 10 11 14 18 19 21 22 24 29 30 31 35 37 38 40 42 43
0 3 6 7 8 15 16 18 19 23 24 27 29 32 33 34 35 39
0 3 4 5 8 11 13 17 19 21 24 25 26 31 34 35 37 43
0 3 5 7 9 12 13 14 15 17 19 21 22 25 28 29 30 31 32 39 43
6 12 13 14 15 17 18 20 24 25 26 27 30 31 32 38 39 41 42
